19 135
1 2 7
1 3 8
1 4 4
1 5 9
1 6 1
1 7 10
1 8 10
1 10 9
1 13 7
1 14 7
1 15 3
1 16 1
1 18 3
1 19 1
2 3 10
2 4 7
2 6 2
2 7 4
2 8 10
2 9 4
2 10 10
2 11 4
2 13 2
2 14 10
2 15 3
2 16 9
2 18 9
3 4 2
3 6 5
3 7 6
3 8 10
3 10 9
3 11 9
3 12 8
3 13 7
3 14 9
3 15 7
3 17 7
3 18 10
4 5 7
4 6 7
4 7 3
4 8 8
4 10 3
4 11 8
4 12 3
4 13 5
4 14 6
4 15 4
4 16 6
4 17 10
4 18 2
5 6 6
5 7 1
5 8 8
5 10 9
5 11 3
5 12 9
5 13 4
5 15 1
5 16 5
5 17 7
6 8 7
6 9 10
6 10 5
6 12 5
6 13 5
6 14 9
6 15 10
6 16 9
6 17 4
6 18 1
6 19 5
7 8 3
7 9 4
7 10 10
7 11 10
7 12 4
7 13 3
7 15 8
7 16 6
7 18 8
7 19 8
8 10 5
8 11 1
8 12 7
8 13 4
8 15 3
8 16 9
8 19 9
9 10 2
9 11 2
9 12 1
9 13 9
9 14 2
9 15 8
9 16 2
9 17 2
9 18 8
9 19 4
10 12 1
10 13 8
10 14 10
10 15 8
10 16 8
10 17 2
10 18 1
11 12 8
11 13 10
11 15 2
11 17 3
11 18 8
11 19 9
12 13 7
12 14 8
12 17 5
12 19 5
13 16 4
13 17 6
13 18 1
13 19 2
14 15 10
14 16 1
14 17 3
14 19 2
15 16 8
15 17 2
15 18 9
15 19 10
16 17 8
16 18 8
16 19 8
17 18 10
17 19 4
18 19 9
